# Solution for model subroutine
# Objective value = 180004
x0 -100
x1 100
x2 100
x3 -100
x4 100
x5 100
x7 100
x8 100
x9 -100
x10 -100
x11 -100
x12 -100
x13 -100
x15 100
x16 -100
x17 100
x18 -100
x21 -100
x22 0
